lattice_vector      7.38879593     -0.01913924      0.00000000
  constrain_relaxation z
lattice_vector     -3.67790480      6.40842602      0.00000000
  constrain_relaxation z
lattice_vector      0.00000000      0.00000000     30.00000000
  constrain_relaxation .true.
atom       0.00088346     -0.00049641      3.75012001 C
atom       0.00454872      1.42146538      3.75012002 C
atom      -1.22508488      2.13564547      3.75012005 C
atom      -1.22141959      3.55760730      3.75012000 C
atom      -2.45105321      4.27178742      3.75011999 C
atom      -2.44738790      5.69374948      3.75011996 C
atom       2.46381547     -0.00687619      3.75011999 C
atom       2.46748075      1.41508563      3.75012002 C
atom       1.23784713      2.12926577      3.75012001 C
atom       1.24151239      3.55122756      3.75011998 C
atom       0.01187897      4.26540769      3.75011995 C
atom       0.01554406      5.68736974      3.75011995 C
atom       4.92674746     -0.01325587      3.75012000 C
atom       4.93041271      1.40870590      3.75012005 C
atom       3.70077933      2.12288605      3.75012005 C
atom       3.70444436      3.54484781      3.75012003 C
atom       2.47481098      4.25902792      3.75011997 C
atom       2.47847605      5.68099001      3.75011998 C
